NUM_TRAINS = 17;
NUM_ACTIONS = 117;
NUM_DRIVERS = 3;

D = [3,3,3,3,3,3,3,3,3,3,3,3,3,3,3,3,3,3,3,3,3,3,3,3,3,3,3,3,3,3,3,3,3,3,3,3,3,3,3,3,3,3,3,3,3,3,3,3,3,3,3,3,3,3,3,3,3,3,3,3,3,3,3,3,3,3,3,3,3,3,3,3,3,3,3,3,3,3,3,3,3,3,3,3,3,3,3,3,3,3,3,3,3,3,3,3,3,3,3,3,3,3,3,3,3,3,3,3,3,3,3,3,3,3,3,3,3];
TA = [1,1,1,1,2,2,2,2,3,3,3,3,4,4,4,4,5,5,5,5,6,6,6,6,3,3,3,3,7,7,7,7,5,5,5,5,5,8,8,8,8,6,6,6,6,6,9,9,9,9,7,7,7,7,10,10,10,10,8,8,8,8,8,11,11,11,11,9,9,9,9,12,12,12,12,10,10,10,10,13,13,13,13,11,11,11,11,11,14,14,14,14,14,14,14,14,15,15,15,15,15,15,15,15,15,16,16,16,16,16,16,16,16,17,17,17,17];

NUM_PRECEDENCE_CONSTRAINTS = 721;
preceding = [1,1,1,2,2,3,3,3,3,3,3,3,3,3,3,3,3,3,3,3,3,3,4,4,4,4,4,4,4,4,4,4,4,4,4,4,4,4,5,5,5,6,6,7,7,7,7,7,7,7,7,7,7,7,7,7,7,7,7,7,7,7,7,7,7,7,8,8,8,8,8,8,8,8,9,9,9,10,10,11,11,11,11,11,11,11,11,11,11,11,11,11,11,11,11,11,11,11,11,11,11,12,12,12,12,12,12,12,13,13,13,14,14,15,15,15,15,15,15,15,15,15,15,15,15,15,15,15,16,16,16,16,16,16,16,16,16,16,16,17,17,17,18,18,19,19,19,19,19,19,19,19,19,19,19,19,19,19,20,20,20,20,20,20,20,20,20,20,21,21,21,22,22,23,23,23,23,23,23,23,23,23,23,23,23,23,23,24,24,24,24,24,24,24,24,24,24,24,24,24,25,25,25,25,25,25,25,25,25,25,25,26,26,26,26,26,26,26,26,26,26,26,26,26,26,26,26,26,26,27,27,27,27,27,27,27,27,27,27,27,27,27,27,27,27,27,28,28,29,29,29,30,30,31,31,31,31,31,31,31,31,31,31,31,31,31,31,31,31,31,31,32,32,32,32,32,32,33,33,33,33,33,33,33,33,33,33,33,33,34,34,34,34,34,34,34,34,34,34,34,34,34,35,35,35,35,35,35,35,35,35,35,35,35,35,35,35,35,35,35,35,36,36,36,36,36,37,37,37,38,38,38,39,39,40,40,40,40,40,40,40,40,40,40,40,41,41,41,41,41,41,41,41,42,42,42,42,42,42,42,42,42,42,42,43,43,43,43,43,43,43,43,43,43,43,43,44,44,44,44,44,44,44,44,44,44,44,44,44,44,44,44,44,44,45,45,45,45,45,46,47,47,47,48,48,49,49,49,49,49,49,49,49,49,49,50,50,50,50,50,50,50,50,50,50,51,51,51,51,51,51,51,51,52,52,52,52,52,52,52,52,52,52,52,52,52,53,53,53,53,53,53,53,53,53,53,53,53,54,54,55,55,55,56,56,57,57,57,57,57,57,57,57,57,57,57,57,57,58,58,58,59,59,59,59,59,59,59,59,59,59,60,60,60,60,60,60,60,60,60,60,61,61,61,61,61,61,61,61,61,61,61,61,61,61,62,62,62,63,64,64,64,65,65,66,66,66,66,66,66,66,67,67,67,67,67,68,68,68,68,68,68,68,68,69,69,69,69,69,69,69,69,70,70,70,70,70,70,70,70,70,71,71,72,72,72,73,73,74,74,74,74,74,74,74,75,75,75,75,75,75,75,75,76,76,76,76,76,76,77,77,77,77,77,77,77,77,77,78,78,78,78,78,78,78,78,79,80,80,80,81,81,82,82,82,82,82,82,82,82,82,83,83,84,84,84,84,84,84,84,84,85,85,85,85,85,85,85,86,86,86,86,86,86,86,86,87,88,89,89,89,90,90,91,91,91,92,92,93,93,93,93,93,93,94,94,94,94,94,95,95,95,95,95,96,97,97,97,98,98,99,99,100,101,101,101,101,101,101,102,102,102,102,102,103,103,103,103,103,104,106,106,106,107,107,108,110,110,110,110,111,111,111,112,112,114,114,114,115,115,116];
anteceding = [4,3,2,4,3,31,82,85,34,102,111,57,60,26,94,52,77,43,11,69,4,7,110,68,100,42,41,117,109,67,92,101,59,84,93,16,20,33,6,8,7,8,7,99,85,15,116,74,77,34,23,102,108,111,60,66,69,26,91,94,49,52,40,43,8,19,25,103,86,61,44,51,76,35,12,11,10,12,11,85,12,15,116,74,77,34,99,102,108,111,60,66,91,94,49,52,40,43,19,69,23,103,61,44,51,76,35,86,15,16,14,16,15,16,82,85,77,34,102,111,57,60,26,94,52,43,69,31,93,42,68,24,50,75,84,33,101,110,59,19,18,20,19,20,43,31,20,82,85,77,102,111,57,60,69,26,94,52,24,75,101,50,59,84,93,42,110,68,23,24,22,23,24,102,57,82,85,77,34,111,60,69,26,94,52,24,31,93,110,68,100,92,41,117,84,109,67,33,101,59,83,86,61,27,28,32,44,35,26,103,58,27,31,104,62,28,87,45,82,85,34,102,111,57,60,69,94,43,36,39,44,115,73,107,56,65,28,90,48,35,30,103,61,86,98,81,79,113,30,31,32,31,32,94,49,43,32,99,102,85,91,116,74,77,34,40,108,111,60,66,69,44,76,35,103,61,86,109,67,42,68,34,35,100,92,41,117,37,36,99,91,49,116,74,77,35,40,108,66,52,37,36,78,81,39,37,36,112,115,70,73,76,107,56,65,90,48,51,95,98,53,37,82,77,57,52,46,105,63,41,39,40,40,41,82,85,77,111,69,94,52,41,43,102,57,101,50,84,110,68,93,42,75,43,50,75,84,44,101,110,59,93,45,46,91,46,49,74,77,108,66,52,44,45,116,99,95,98,53,56,78,81,90,45,112,115,70,73,76,107,65,48,51,46,57,46,52,77,82,88,48,49,50,49,50,50,102,57,60,82,85,94,77,111,52,92,84,67,101,110,59,93,117,100,109,103,58,61,53,54,52,83,86,111,69,104,53,87,82,62,102,54,57,60,85,94,86,103,61,98,56,81,90,115,73,107,65,54,79,113,57,58,56,57,58,116,74,99,102,108,60,85,91,94,111,66,69,58,86,103,61,62,68,60,63,100,117,109,61,67,92,61,116,62,99,108,63,91,74,77,66,78,112,115,70,95,98,81,90,73,76,107,62,65,63,82,63,77,88,66,67,65,66,67,102,94,77,111,69,67,82,110,68,75,101,93,84,93,110,71,69,75,70,101,70,116,71,74,99,108,91,77,103,98,81,90,115,73,107,71,86,79,113,75,73,74,75,74,102,85,94,77,111,75,82,110,100,117,109,92,101,84,93,79,77,103,83,86,78,79,82,85,102,111,94,78,104,87,81,90,79,107,86,103,115,98,96,82,83,81,82,83,83,85,116,99,102,108,111,91,94,103,86,100,86,92,117,109,87,85,88,116,99,108,88,91,86,87,88,112,115,95,98,107,87,90,88,105,90,91,92,91,92,102,111,92,101,110,94,100,117,109,95,96,108,95,96,99,116,107,103,115,98,96,113,99,100,98,99,100,111,100,110,117,109,104,102,105,103,103,104,116,105,108,112,115,104,107,105,105,108,109,107,108,109,109,117,112,113,111,112,113,116,115,113,116,117,115,116,117,117];

NUM_TURN_CONSTRAINTS = 196;
before_turn = [9,9,9,9,10,10,10,10,11,11,11,11,12,12,12,12,17,17,17,17,17,18,18,18,18,18,19,19,19,19,19,20,20,20,20,20,21,21,21,21,21,22,22,22,22,22,23,23,23,23,23,24,24,24,24,24,29,29,29,29,30,30,30,30,31,31,31,31,32,32,32,32,38,38,38,38,38,39,39,39,39,39,40,40,40,40,40,41,41,41,41,41,47,47,47,47,48,48,48,48,49,49,49,49,50,50,50,50,55,55,55,55,56,56,56,56,57,57,57,57,58,58,58,58,64,64,64,64,64,65,65,65,65,65,66,66,66,66,66,67,67,67,67,67,89,89,89,89,90,90,90,90,91,91,91,91,92,92,92,92,97,97,97,97,97,98,98,98,98,98,99,99,99,99,99,100,100,100,100,100,106,106,106,106,107,107,107,107,108,108,108,108,109,109,109,109];
after_turn = [26,25,28,27,26,25,28,27,27,26,25,28,27,26,25,28,36,34,35,33,37,37,36,34,35,33,36,34,35,33,37,36,34,35,37,33,43,42,46,44,45,42,46,44,45,43,43,42,46,44,45,46,44,45,43,42,53,52,51,54,52,51,54,53,52,51,54,53,53,52,51,54,63,59,62,61,60,61,60,63,59,62,60,63,59,62,61,61,60,63,59,62,69,68,71,70,70,69,68,71,69,68,71,70,70,69,68,71,76,79,78,77,78,77,76,79,77,76,79,78,77,76,79,78,85,84,87,88,86,86,85,88,84,87,88,84,87,86,85,86,85,88,84,87,95,94,93,96,94,93,96,95,94,93,96,95,93,96,95,94,102,105,103,101,104,101,104,103,102,105,103,102,105,101,104,103,102,105,101,104,112,111,110,113,113,112,111,110,111,110,113,112,113,112,111,110];

NUM_START_ORDER_CONSTRAINTS = 513;
start_early = [1,1,1,1,1,1,1,1,1,1,1,1,1,1,1,1,2,2,2,2,2,2,2,2,2,2,2,2,2,2,2,2,3,3,3,3,3,3,3,3,3,3,3,4,4,4,5,5,5,5,5,5,5,5,5,5,5,5,5,5,5,6,6,6,6,6,6,6,6,6,6,6,6,6,6,6,7,7,7,7,7,7,7,7,7,8,8,8,8,9,9,9,9,9,9,9,9,9,9,9,9,9,9,10,10,10,10,10,10,10,10,10,10,10,10,10,10,11,11,11,11,11,11,11,11,12,12,12,13,13,13,13,13,13,13,13,13,13,13,13,13,14,14,14,14,14,14,14,14,14,14,14,14,14,15,15,15,15,15,15,15,15,15,15,16,16,16,16,16,16,16,17,17,17,17,17,17,17,17,17,17,17,17,18,18,18,18,18,18,18,18,18,18,18,18,19,19,19,19,19,19,19,19,19,20,20,20,20,20,20,21,21,21,21,21,21,21,21,21,21,21,22,22,22,22,22,22,22,22,22,22,22,23,23,23,23,23,23,23,23,24,24,25,25,26,26,27,27,27,27,27,28,28,28,29,29,29,29,29,29,29,29,29,29,30,30,30,30,30,30,30,30,30,30,31,31,31,31,31,31,31,32,32,33,33,33,33,33,34,34,34,34,34,34,34,35,35,35,35,35,35,36,36,36,36,37,38,38,38,38,38,38,38,38,38,39,39,39,39,39,39,39,39,39,40,40,40,40,40,40,40,41,41,41,41,41,42,43,43,43,43,43,43,44,44,44,44,44,45,45,45,46,46,47,47,47,47,47,47,47,47,48,48,48,48,48,48,48,48,49,49,49,49,49,49,50,51,52,53,53,53,53,54,54,55,55,55,55,55,55,55,56,56,56,56,56,56,56,57,57,57,57,58,59,59,59,59,60,60,60,60,60,61,61,61,62,62,63,64,64,64,64,64,64,65,65,65,65,65,65,66,66,66,66,66,67,67,67,67,69,69,69,69,70,70,70,71,72,72,72,72,72,73,73,73,73,73,74,74,74,74,78,78,79,80,80,80,80,81,81,81,81,82,82,84,84,84,85,85,85,86,87,89,89,89,90,90,90,91,91,91,92,92,92,93,93,94,94,95,97,97,98,98,99,99,100,100,101,102,106,107,108,109];
start_later = [97,55,21,17,80,89,5,114,72,106,64,47,13,38,9,29,30,22,98,18,81,90,39,10,14,115,73,6,107,56,65,48,19,23,116,74,99,108,66,91,49,15,40,24,75,50,106,64,47,13,38,9,29,97,55,21,17,80,89,114,72,22,30,115,98,56,18,81,90,39,48,10,14,73,107,65,44,82,35,57,103,86,11,61,31,58,83,12,32,38,29,97,55,21,17,80,89,47,114,72,106,64,13,81,30,39,115,73,98,107,56,18,90,48,14,65,22,82,35,57,103,86,61,31,44,58,32,83,97,55,21,17,80,89,47,114,72,106,64,38,29,81,39,115,73,98,107,56,18,90,48,65,30,22,23,116,74,99,108,66,91,49,40,19,20,100,92,41,117,109,67,80,29,114,97,55,21,89,47,72,106,64,38,65,30,22,81,39,115,73,98,107,56,90,48,23,99,116,74,40,108,66,91,49,100,92,41,117,109,67,89,47,72,64,38,80,29,114,97,106,55,81,39,115,73,98,107,56,90,48,65,30,99,91,116,74,40,108,66,49,50,75,76,51,77,52,112,70,95,53,78,96,54,71,114,72,97,106,55,64,89,47,38,80,81,39,115,73,98,107,56,65,90,48,103,61,86,44,57,82,35,58,83,101,110,59,93,84,102,85,94,111,60,69,43,44,57,82,103,61,86,104,62,87,45,88,89,47,80,114,72,97,106,55,64,90,48,98,81,115,73,107,56,65,91,116,74,108,66,49,99,100,109,67,92,117,68,94,111,69,102,60,85,103,61,57,82,86,104,87,62,105,63,80,114,72,97,106,55,64,89,115,73,107,65,98,56,81,90,116,99,91,74,108,66,75,76,77,78,112,95,70,71,96,97,80,114,72,106,64,89,107,65,98,81,90,115,73,82,86,103,61,83,84,93,110,101,102,85,94,111,69,103,82,86,104,87,105,97,80,89,114,72,106,98,81,90,115,73,107,116,74,99,108,91,117,100,109,92,102,85,94,111,112,95,78,96,80,89,114,106,97,81,115,98,90,107,99,108,91,116,112,95,113,106,97,89,114,115,98,90,107,86,103,101,93,110,102,111,94,103,104,106,97,114,115,98,107,99,116,108,117,109,100,101,110,102,111,112,114,106,107,115,116,108,117,109,110,111,114,115,116,117];

NUM_OVERLAP_CONSTRAINS = 552;
overlap_left = [2,2,2,2,2,2,2,2,2,2,2,3,3,3,3,3,3,3,3,3,3,3,3,3,3,3,3,3,3,3,4,4,4,4,4,4,4,4,6,6,6,6,6,6,6,6,6,6,6,7,7,7,7,7,7,7,7,7,8,8,8,8,8,8,8,8,10,10,10,10,10,10,10,10,10,10,11,11,11,11,11,11,11,12,12,12,12,12,12,12,14,14,14,14,14,14,14,14,14,14,14,15,15,15,15,15,15,15,15,15,15,15,15,15,15,15,15,15,15,15,16,16,16,16,16,16,16,16,18,18,18,18,18,18,18,18,18,18,19,19,19,19,19,19,19,19,19,19,19,19,19,19,19,19,19,20,20,20,20,20,20,20,22,22,22,22,22,22,22,22,22,22,23,23,23,23,23,23,23,23,23,23,23,23,23,23,23,23,23,24,24,24,24,24,24,24,25,25,25,26,26,26,26,26,26,26,26,26,26,26,26,26,26,27,27,27,27,27,27,27,27,27,27,27,30,30,30,30,30,30,30,30,30,31,31,31,31,31,32,32,32,32,32,32,33,33,33,33,33,33,33,33,34,34,34,34,34,34,34,34,34,34,34,34,34,34,34,34,34,34,35,35,35,35,35,35,35,35,36,36,39,39,39,39,39,39,39,39,40,40,40,40,40,40,40,40,40,40,40,40,40,40,41,41,41,41,41,41,42,42,42,42,42,42,42,43,43,43,43,43,43,43,43,43,43,43,43,43,43,43,43,44,44,44,44,44,44,44,45,45,48,48,48,48,48,48,48,49,49,49,49,49,49,49,49,49,49,49,49,50,50,50,50,50,51,51,52,52,52,52,52,52,52,52,52,52,53,53,53,53,53,53,53,53,56,56,56,56,56,56,57,57,57,58,58,58,59,59,59,59,59,59,60,60,60,60,60,60,60,60,60,60,60,60,60,61,61,61,61,61,61,62,65,65,65,65,65,66,66,66,66,66,66,66,66,66,67,67,67,67,68,68,68,68,68,69,69,69,69,69,69,69,69,69,69,69,70,70,70,70,70,70,73,73,73,73,73,74,74,74,74,74,74,74,74,74,75,75,75,75,76,77,77,77,77,77,77,78,78,78,78,78,81,81,81,81,82,82,83,83,84,84,84,84,85,85,85,85,85,85,85,85,86,86,86,86,90,90,91,91,91,91,92,92,93,93,93,94,94,94,94,94,94,95,95,95,98,99,99,100,101,101,102,102,102,102,103,103,110,111,111,112];
overlap_right = [111,69,26,52,43,102,60,85,94,77,34,103,112,61,70,27,95,101,53,59,84,93,44,33,110,68,35,42,86,78,34,102,111,60,94,43,69,85,94,52,77,43,111,69,85,34,102,60,26,51,76,25,78,112,70,27,95,53,26,52,36,104,62,87,45,77,69,85,77,34,102,111,60,94,52,43,76,78,112,70,95,53,51,104,62,87,45,77,52,36,85,77,34,102,111,60,69,26,94,52,43,53,59,84,93,44,42,110,68,35,103,86,78,112,61,70,27,33,95,101,85,34,102,111,60,69,94,43,77,102,111,60,69,26,94,52,43,85,86,95,78,84,112,61,70,27,101,110,53,59,93,44,42,68,103,102,111,60,94,43,69,85,85,77,34,102,111,60,69,26,94,52,33,101,110,53,59,93,68,35,103,61,86,95,78,84,112,70,27,85,34,102,111,60,69,94,31,82,57,73,98,107,56,65,32,90,48,30,58,83,81,39,115,31,99,57,82,91,49,116,74,40,108,66,77,34,102,111,60,69,94,43,85,95,78,112,70,76,87,36,104,62,45,77,99,91,116,74,40,108,66,49,90,48,117,100,109,92,98,41,50,75,81,39,115,67,73,107,56,65,99,91,116,74,40,108,66,49,58,83,102,85,94,77,111,69,52,43,42,68,103,86,95,78,84,44,112,70,101,110,53,93,43,102,85,94,111,69,74,108,66,99,91,49,116,117,75,100,109,92,98,50,56,81,90,115,67,73,107,65,48,108,66,116,99,91,49,74,83,58,102,60,85,94,52,77,111,95,101,53,78,84,112,110,59,93,86,103,61,102,60,85,94,111,82,57,58,98,56,81,90,115,73,107,65,83,74,66,82,116,99,108,57,91,102,60,85,94,111,69,70,112,95,104,62,87,116,74,99,108,91,66,100,109,67,92,98,81,90,115,73,107,65,117,75,66,116,74,99,108,91,83,102,94,77,111,69,110,68,78,103,112,70,95,101,93,102,94,111,69,116,74,99,108,91,92,98,81,90,115,73,107,117,75,100,109,82,116,99,108,91,74,77,85,102,111,94,86,78,103,112,95,101,84,93,110,102,111,94,85,82,83,81,115,98,107,90,82,116,99,108,91,111,85,102,94,112,95,104,87,91,116,99,108,107,100,117,109,115,92,98,90,116,99,108,91,102,111,112,101,110,103,102,111,99,116,108,100,117,109,115,98,107,116,99,108,111,112,110,111,116,108,117,109,115,107,116,108,116,117,115,116];

NUM_DONT_STOP_CONSTRAINTS = 89;
dont_stop_before = [62,111,1,73,90,26,70,84,52,14,6,101,34,81,49,40,60,19,31,94,103,39,2,22,114,82,102,43,116,35,93,61,55,29,104,72,66,115,42,95,77,11,45,74,76,17,65,85,53,36,15,25,87,30,64,9,98,107,38,23,7,86,18,106,80,48,97,5,44,59,108,56,21,47,99,3,110,78,112,69,10,13,89,57,27,51,91,33,68];
dont_stop_after = [63,112,2,74,91,27,71,85,53,15,7,102,35,82,50,41,61,20,32,95,104,40,3,23,115,83,103,44,117,36,94,62,56,30,105,73,67,116,43,96,78,12,46,75,77,18,66,86,54,37,16,26,88,31,65,10,99,108,39,24,8,87,19,107,81,49,98,6,45,60,109,57,22,48,100,4,111,79,113,70,11,14,90,58,28,52,92,34,69];

